Traveling Salesman Problem/TSP_generados/Aleatorio1620391002_12.tsp
NAME: Aleatorio1620391002_12.tsp
COMMENT: Randomly generated scenario
TYPE: TSP
DIMENSION: 12
EDGE_WEIGHT_TYPE: ATT
NODE_COORD_SECTION
1 21.8 32.64
2 19.51 21.04
3 34.55 25.76
4 0.59 16.65
5 23.94 19.52
6 25.06 30.62
7 37.73 4.55
8 42.36 40.63
9 41.65 4.08
10 41.69 20.04
11 33.49 29.61
12 41.14 27.61
