Traveling Salesman Problem/TSP_generados/Aleatorio1620391002_12.opt.tour
NAME: Aleatorio1620391002_12.opt.tour
COMMENT: Optimal solution for Aleatorio1620391002_12 (144.23354624738508)
TYPE: TOUR
DIMENSION: 12
TOUR_SECTION
1 4 2 5 7 9 10 12 8 11 3 6
-1
EOF
